p cnf 26 64
a 20 7 0
e 1 2 3 4 5 6 8 9 10 11 12 13 14 15 16 17 18 19 21 22 23 24 25 26 0
-1 2 -3 0
1 -2 -3 0
-1 -2 3 0
1 2 3 0
5 -4 0
5 4 0
8 -6 0
8 7 0
6 -7 -8 0
-9 -5 0
-9 -8 0
5 8 9 0
-10 3 0
-10 9 0
-3 -9 10 0
-12 -11 0
-12 -6 0
11 6 12 0
14 11 0
14 13 0
-11 -13 -14 0
15 -1 0
15 14 0
1 -14 -15 0
-16 -12 0
-16 -15 0
12 15 16 0
17 -10 0
17 16 0
10 -16 -17 0
-18 4 0
-18 -7 0
-4 7 18 0
-1 -18 -19 0
1 18 -19 0
-1 18 19 0
1 -18 19 0
21 -13 0
21 -20 0
13 20 -21 0
-6 11 -22 0
6 -11 -22 0
-6 -11 22 0
6 11 22 0
-23 -7 0
-23 -22 0
7 22 23 0
-21 -23 -24 0
21 23 -24 0
-21 23 24 0
21 -23 24 0
-25 19 0
-25 24 0
-19 -24 25 0
-26 -17 0
-26 -25 0
17 25 26 0
20 1 -9 11 0
17 19 5 -6 -11 0
7 18 25 16 -15 9 -10 21 0
-9 7 20 13 8 0
-22 12 -5 -14 25 6 -3 0
-26 -16 -10 6 -12 0
26 0
